NAME: GRASP_44_2
TYPE: TSP
COMMENT: line_44_2
DIMENSION: 44
EDGE_WEIGHT_TYPE: EUC_2D
NODE_COORD_SECTION
1 3075 1942
2 53 794
3 1858 1829
4 4637 429
5 4415 1708
6 4417 187
7 3725 831
8 3075 4972
9 1329 4359
10 2067 1354
11 2909 394
12 186 3034
13 624 629
14 1957 500
15 1229 4269
16 1752 1934
17 4027 3683
18 3680 401
19 289 338
20 4948 4468
21 4621 2174
22 259 3797
23 1834 538
24 1617 2640
25 2633 1732
26 1468 2433
27 1519 3783
28 183 1646
29 1822 1573
30 4880 3807
31 3995 4418
32 1160 2303
33 4428 1151
34 1697 3017
35 2439 827
36 624 4514
37 980 3596
38 3324 1162
39 2004 153
40 3182 4026
41 3261 1391
42 2704 979
43 573 439
44 3370 4045
